************************************************************************
file with basedata            : md372_.bas
initial value random generator: 2127455891
************************************************************************
projects                      :  1
jobs (incl. supersource/sink ):  22
horizon                       :  157
RESOURCES
  - renewable                 :  2   R
  - nonrenewable              :  2   N
  - doubly constrained        :  0   D
************************************************************************
PROJECT INFORMATION:
pronr.  #jobs rel.date duedate tardcost  MPM-Time
    1     20      0       20       19       20
************************************************************************
PRECEDENCE RELATIONS:
jobnr.    #modes  #successors   successors
   1        1          3           2   3   4
   2        3          3           8  13  15
   3        3          3           5   9  17
   4        3          3           6  14  18
   5        3          1          11
   6        3          3           7  10  11
   7        3          2          15  20
   8        3          3          10  18  21
   9        3          3          11  12  14
  10        3          1          20
  11        3          2          13  16
  12        3          3          13  16  18
  13        3          1          21
  14        3          1          19
  15        3          1          16
  16        3          2          19  21
  17        3          1          20
  18        3          1          19
  19        3          1          22
  20        3          1          22
  21        3          1          22
  22        1          0        
************************************************************************
REQUESTS/DURATIONS:
jobnr. mode duration  R 1  R 2  N 1  N 2
------------------------------------------------------------------------
  1      1     0       0    0    0    0
  2      1     1       0    9    2    5
         2     4       0    5    2    5
         3     8       0    3    1    5
  3      1     3      10    0    9    9
         2     7       0   10    8    9
         3     9       0   10    8    6
  4      1     7       4    0    6    5
         2     8       0    8    6    4
         3     9       0    6    6    3
  5      1     7       0    5    8    8
         2     8       2    0    8    5
         3    10       0    2    7    2
  6      1     1       0   10    8    5
         2    10       2    0    5    5
         3    10       0    7    5    5
  7      1     4       0   10   10    3
         2     6       0    6    8    2
         3     9       5    0    5    2
  8      1     4       0    3    5    9
         2     5       7    0    5    8
         3     7       0    2    4    7
  9      1     1       0    9    7   10
         2     2       6    0    5    7
         3     4       0    4    4    6
 10      1     3       9    0    8    4
         2     5       0    1    7    2
         3     7       6    0    7    2
 11      1     2       8    0    7    9
         2     9       0    6    7    5
         3    10       0    6    7    4
 12      1     4       9    0    7   10
         2     5       0    8    5    8
         3     9       0    4    2    7
 13      1     7       0    5    4    6
         2     8       9    0    4    6
         3     9       8    0    3    3
 14      1     5       0    4    7    9
         2     6       0    4    7    7
         3    10       0    4    7    6
 15      1     5       6    0    5   10
         2     6       0    2    3    9
         3     7       6    0    3    9
 16      1     1       7    0   10    4
         2     5       6    0    9    3
         3     6       0    6    6    3
 17      1     6       5    0    3   10
         2     8       3    0    3    7
         3     9       1    0    2    7
 18      1     3       0    3    8    5
         2     4       0    2    7    2
         3     8       0    2    6    1
 19      1     1       0    5    9    3
         2     2       6    0    6    3
         3     4       0    5    6    3
 20      1     1       0    6    7    4
         2     3      10    0    4    2
         3     9       0    5    4    1
 21      1     1       0    5    5    6
         2     3       9    0    5    4
         3     3      10    0    3    5
 22      1     0       0    0    0    0
************************************************************************
RESOURCEAVAILABILITIES:
  R 1  R 2  N 1  N 2
   27   28  125  122
************************************************************************
MAXIMAL LAGS:
from  to  type  delay
    1   22   ES      0
    1    2   ES      0
    2   22   ES      0
    1    3   ES      0
    3   22   ES      0
    1    4   ES      0
    4   22   ES      0
    1    5   ES      0
    5   22   ES      0
    1    6   ES      0
    6   22   ES      0
    1    7   ES      0
    7   22   ES      0
    1    8   ES      0
    8   22   ES      0
    1    9   ES      0
    9   22   ES      0
    1   10   ES      0
   10   22   ES      0
    1   11   ES      0
   11   22   ES      0
    1   12   ES      0
   12   22   ES      0
    1   13   ES      0
   13   22   ES      0
    1   14   ES      0
   14   22   ES      0
    1   15   ES      0
   15   22   ES      0
    1   16   ES      0
   16   22   ES      0
    1   17   ES      0
   17   22   ES      0
    1   18   ES      0
   18   22   ES      0
    1   19   ES      0
   19   22   ES      0
    1   20   ES      0
   20   22   ES      0
    1   21   ES      0
   21   22   ES      0
    1   22   ES      0
    2    8   SS     -6
    2    8   SE     11
    2    8   ES     -3
    2    8   EE     -8
    2   13   SS     -8
    2   13   SE     -2
    2   13   ES     -6
    2   13   EE      6
    2   15   SS     -5
    2   15   SE      7
    2   15   ES     -8
    2   15   EE     -8
    3    5   SS     -4
    3    5   SE     -8
    3    5   ES     -1
    3    5   EE     12
    3    9   SS      3
    3    9   SE      3
    3    9   ES      2
    3    9   EE     12
    3   17   SS     -7
    3   17   SE      2
    3   17   ES      2
    3   17   EE     -4
    4    6   SS     -1
    4    6   SE      2
    4    6   ES      9
    4    6   EE     -2
    4   14   SS    -11
    4   14   SE     -7
    4   14   ES     -9
    4   14   EE      9
    4   18   SS      4
    4   18   SE      4
    4   18   ES     -1
    4   18   EE     -7
    5   11   SS    -10
    5   11   SE     -9
    5   11   ES     -3
    5   11   EE      4
    6    7   SS     -3
    6    7   SE      1
    6    7   ES    -11
    6    7   EE     -5
    6   10   SS     10
    6   10   SE      0
    6   10   ES     -6
    6   10   EE      4
    6   11   SS     -5
    6   11   SE      6
   11    6   SE      0
    6   11   ES      0
    6   11   EE     10
    7   15   SS     12
    7   15   SE      5
    7   15   ES      3
    7   15   EE      5
    7   20   SS      4
    7   20   SE     -3
    7   20   ES     -7
    7   20   EE    -12
    8   10   SS     12
    8   10   SE     11
    8   10   ES      9
    8   10   EE     -3
    8   18   SS      2
    8   18   SE     -2
    8   18   ES     10
    8   18   EE      8
    8   21   SS     10
    8   21   SE      6
    8   21   ES     12
    8   21   EE      5
    9   11   SS     -5
    9   11   SE     -1
    9   11   ES      9
    9   11   EE      4
    9   12   SS      7
    9   12   SE     -3
    9   12   ES      2
    9   12   EE     12
    9   14   SS      3
    9   14   SE    -11
    9   14   ES      0
    9   14   EE      6
   10   20   SS     10
   10   20   SE     11
   10   20   ES     -5
   10   20   EE      9
   11   13   SS      6
   11   13   SE     -7
   11   13   ES      4
   11   13   EE     -2
   11   16   SS     -5
   11   16   SE     -8
   11   16   ES      8
   11   16   EE      8
   12   13   SS    -11
   12   13   SE     -8
   12   13   ES     -2
   12   13   EE     -3
   12   16   SS      1
   12   16   SE    -10
   12   16   ES      1
   12   16   EE     10
   12   18   SS      9
   12   18   SE     10
   12   18   ES      8
   12   18   EE      3
   13   21   SS      6
   13   21   SE     -3
   13   21   ES      1
   13   21   EE     11
   14   19   SS      2
   14   19   SE      8
   14   19   ES      2
   14   19   EE      4
   15   16   SS      9
   15   16   SE    -10
   15   16   ES      4
   15   16   EE     12
   16   19   SS      6
   16   19   SE      4
   16   19   ES      1
   16   19   EE     -6
   16   21   SS     10
   16   21   SE      1
   16   21   ES     11
   16   21   EE    -10
   17   20   SS     -5
   17   20   SE      6
   17   20   ES     -2
   17   20   EE      7
   18   19   SS     10
   18   19   SE     -3
   18   19   ES     12
   18   19   EE      8
************************************************************************
